c Random generated cnf formula, satisfiable: true
p cnf 10 50
-4 8 -5 0
9 7 -1 0
-3 7 -10 0
-3 -6 10 0
-7 -6 8 0
-5 -7 -4 0
-4 9 -7 0
-3 -1 10 0
4 -10 6 0
-4 -5 -1 0
5 10 -3 0
-2 9 6 0
-6 5 -9 0
8 -1 2 0
9 -4 2 0
10 -4 -3 0
10 -2 1 0
1 2 -8 0
-3 -2 9 0
-7 6 -10 0
-6 7 8 0
4 8 7 0
-2 -10 9 0
-2 7 8 0
1 3 -9 0
6 -5 -3 0
-5 1 9 0
-3 9 8 0
3 -1 8 0
10 6 -8 0
-10 8 5 0
6 3 -9 0
9 3 -7 0
7 -9 4 0
-10 -5 6 0
2 6 7 0
9 -10 -5 0
-9 -2 -7 0
10 8 2 0
-2 -4 7 0
5 -8 -6 0
-8 -6 9 0
8 7 3 0
5 6 7 0
1 -8 -10 0
-1 8 -3 0
1 -7 8 0
-2 -5 -1 0
8 -3 6 0
9 -4 1 0
